o7.py
Ipopt 3.12: 
==> Warning: Treating 42 binary and 0 integer variables as continous.


******************************************************************************
This program contains Ipopt, a library for large-scale nonlinear optimization.
 Ipopt is released as open source code under the Eclipse Public License (EPL).
         For more information visit http://projects.coin-or.org/Ipopt
******************************************************************************

This is Ipopt version 3.12, running with linear solver ma27.

Number of nonzeros in equality constraint Jacobian...:        0
Number of nonzeros in inequality constraint Jacobian.:      842
Number of nonzeros in Lagrangian Hessian.............:       14

Total number of variables............................:      112
                     variables with only lower bounds:        0
                variables with lower and upper bounds:       56
                     variables with only upper bounds:        0
Total number of equality constraints.................:        0
Total number of inequality constraints...............:      211
        inequality constraints with only lower bounds:        0
   inequality constraints with lower and upper bounds:        0
        inequality constraints with only upper bounds:      211

iter    objective    inf_pr   inf_du lg(mu)  ||d||  lg(rg) alpha_du alpha_pr  ls
   0  0.0000000e+00 7.62e+00 1.04e+00  -1.0 0.00e+00    -  0.00e+00 0.00e+00   0
   1  3.7378264e-02 7.56e+00 1.35e+00  -1.0 7.23e+00    -  1.77e-02 8.31e-03f  1
   2  1.6895036e-01 7.40e+00 2.00e+00  -1.0 7.15e+00    -  1.10e-02 2.14e-02f  1
   3  1.1767012e+00 5.99e+00 1.26e+01  -1.0 7.39e+00    -  4.05e-02 2.04e-01f  1
   4  3.8818665e+00 1.12e+00 4.52e+00  -1.0 6.28e+00    -  5.31e-01 1.00e+00f  1
   5  3.5209255e+00 9.25e-02 1.61e+00  -1.0 1.57e+00    -  5.27e-01 8.75e-01f  1
   6  4.0847735e+00 0.00e+00 9.16e-01  -1.0 8.63e-01    -  5.82e-01 1.00e+00f  1
   7  4.0872191e+00 0.00e+00 3.83e-01  -1.0 1.70e+00    -  6.04e-01 1.00e+00f  1
   8  8.3700096e-01 0.00e+00 3.06e-02  -1.7 6.50e-01    -  8.70e-01 1.00e+00f  1
   9  1.1685955e-01 0.00e+00 5.74e-03  -2.5 6.41e-01    -  8.99e-01 1.00e+00f  1
iter    objective    inf_pr   inf_du lg(mu)  ||d||  lg(rg) alpha_du alpha_pr  ls
  10  6.1765745e-03 0.00e+00 3.78e-04  -3.8 3.35e-01    -  9.53e-01 1.00e+00f  1
  11  7.5172155e-05 0.00e+00 6.30e-06  -5.7 8.70e-02    -  9.88e-01 1.00e+00h  1
  12 -2.3119760e-07 0.00e+00 5.12e-06  -8.6 1.00e-02    -  9.99e-01 9.98e-01h  1
  13 -5.3914172e-07 1.02e-07 1.81e-02  -8.6 7.45e+00    -  6.32e-02 6.09e-02h  1
  14 -4.5941534e-07 5.03e-08 5.39e-02  -8.6 7.95e+00    -  5.31e-01 5.00e-01f  2
  15 -3.7630225e-07 6.41e-10 2.63e-01  -8.6 1.70e+01    -  4.90e-01 1.00e+00h  1
  16 -4.0963691e-07 1.30e-08 8.57e-02  -8.6 3.33e+01    -  6.02e-01 1.00e+00h  1
  17 -3.8998129e-07 3.26e-09 3.47e-02  -8.6 8.35e+01    -  5.83e-01 1.00e+00h  1
  18 -3.8806426e-07 2.34e-09 1.79e-02  -8.6 2.00e+02    -  5.87e-01 1.00e+00h  1
  19 -3.8039274e-07 0.00e+00 2.54e-08  -8.6 2.54e-04  -4.0 1.00e+00 1.00e+00h  1
iter    objective    inf_pr   inf_du lg(mu)  ||d||  lg(rg) alpha_du alpha_pr  ls
  20 -3.7972347e-07 0.00e+00 1.19e-11  -8.6 3.41e+02    -  1.00e+00 1.00e+00h  1

Number of Iterations....: 20

                                   (scaled)                 (unscaled)
Objective...............:  -3.7972347036494944e-07   -3.7972347036494944e-07
Dual infeasibility......:   1.1930435935274252e-11    1.1930435935274252e-11
Constraint violation....:   0.0000000000000000e+00    0.0000000000000000e+00
Complementarity.........:   2.5323580276822563e-09    2.5323580276822563e-09
Overall NLP error.......:   2.5323580276822563e-09    2.5323580276822563e-09


Number of objective function evaluations             = 26
Number of objective gradient evaluations             = 21
Number of equality constraint evaluations            = 0
Number of inequality constraint evaluations          = 26
Number of equality constraint Jacobian evaluations   = 0
Number of inequality constraint Jacobian evaluations = 21
Number of Lagrangian Hessian evaluations             = 20
Total CPU secs in IPOPT (w/o function evaluations)   =      0.013
Total CPU secs in NLP function evaluations           =      0.000

EXIT: Optimal Solution Found.

Time elapsed: 0.12593579292297363